outputs/case_277.model.txt
stabilizing_operations_rules_reported_and_approved = False
underwriting_method_fair_and_reasonable = False
other_measures_taken = False
officer_dismissed = False
improvement_deadline_set = False
underwriting_fee_no_other_compensation = True
penalty_warning_issued = False
license_revoked = False
handling_follow_association_rules = False
underwriting_fee_compensated_otherwise = False
suspension_months = 0
securities_law_violated = True
association_rules_reported_and_approved = False
stabilizing_operations_permitted = False
penalty_other_measures = False
penalty_suspension = False
stabilizing_operations_rules_approved = False
penalty_warning = False
penalty = False
underwriting_handling_follow_association = False
underwriting_fair_and_reasonable = False
violation = True
improvement_ordered = False
stabilizing_operations_allowed = False
association_rules_approved = False
penalty_dismiss_officer = False
penalty_license_revocation = False